25
30
1 200 4
2 150 3
3 250 5
4 350 7
5 98 2
6 49 1
7 196 4
8 432 9
9 528 11
10 517 11
11 235 5
12 94 2
13 230 5
14 450 10
15 360 8
16 180 4
17 132 3
18 440 10
19 264 6
20 516 12
21 336 8
22 420 10
23 82 2
24 369 9
25 450 9